c File: instances/28_0.50_2.col
c
c Description: Random graph of size 28 vertices and P(0.49999999999999994) of edges between any two vertices.
p col 28 378
e 1 2
e 1 4
e 1 7
e 1 8
e 1 10
e 1 13
e 1 14
e 1 15
e 1 18
e 1 19
e 1 20
e 1 23
e 1 24
e 1 25
e 1 26
e 1 27
e 2 3
e 2 4
e 2 5
e 2 8
e 2 9
e 2 10
e 2 13
e 2 16
e 2 20
e 2 24
e 2 26
e 3 10
e 3 12
e 3 14
e 3 17
e 3 21
e 3 22
e 3 23
e 3 24
e 3 25
e 3 26
e 4 5
e 4 8
e 4 10
e 4 11
e 4 15
e 4 16
e 4 18
e 4 20
e 4 21
e 4 22
e 4 24
e 4 26
e 5 7
e 5 8
e 5 11
e 5 13
e 5 14
e 5 15
e 5 20
e 5 23
e 5 24
e 5 25
e 5 26
e 5 27
e 6 7
e 6 10
e 6 15
e 6 16
e 6 18
e 6 19
e 6 20
e 6 22
e 6 24
e 6 25
e 6 26
e 6 28
e 7 10
e 7 11
e 7 13
e 7 14
e 7 18
e 7 19
e 7 20
e 7 25
e 7 27
e 8 9
e 8 13
e 8 15
e 8 16
e 8 17
e 8 18
e 8 19
e 8 22
e 8 23
e 8 24
e 8 25
e 8 26
e 9 10
e 9 14
e 9 19
e 9 20
e 9 22
e 9 23
e 9 24
e 9 28
e 10 11
e 10 12
e 10 13
e 10 14
e 10 17
e 10 21
e 10 22
e 10 26
e 11 12
e 11 13
e 11 14
e 11 15
e 11 16
e 11 17
e 11 19
e 11 22
e 11 23
e 11 26
e 12 13
e 12 18
e 12 19
e 12 20
e 12 21
e 12 22
e 12 23
e 12 27
e 13 14
e 13 15
e 13 16
e 13 23
e 13 24
e 13 25
e 13 26
e 13 27
e 14 16
e 14 17
e 14 18
e 14 22
e 14 24
e 15 20
e 15 23
e 15 26
e 15 28
e 16 17
e 16 20
e 16 21
e 16 23
e 16 24
e 16 26
e 16 28
e 17 20
e 17 24
e 17 25
e 17 27
e 18 21
e 18 23
e 18 24
e 18 28
e 19 21
e 19 23
e 19 26
e 20 21
e 20 22
e 20 24
e 20 26
e 20 28
e 21 22
e 21 23
e 21 24
e 21 25
e 21 27
e 21 28
e 22 23
e 22 25
e 23 24
e 23 25
e 23 27
e 23 28
e 24 26
e 24 27
e 25 27
e 25 28
e 26 27
e 26 28
e 27 28